
100
24770

327 329
984 984
960 960
918 919
789 790
876 876
0 1
627 627
246 248
729 731
432 433
561 561
543 543
576 577
828 828
981 982
345 346
807 807
888 890
393 393
123 124
498 498
765 765
525 525
183 185
705 706
324 325
885 887
168 169
594 594
384 386
984 985
138 139
879 881
417 418
372 372
207 209
495 495
930 930
999 1000
939 940
612 612
237 237
507 508
648 650
294 296
987 987
84 85
234 235
204 204
168 168
63 64
240 240
372 374
939 940
543 545
624 625
348 349
171 171
564 564
729 729
84 86
648 650
210 210
690 690
354 356
147 148
141 141
792 793
540 541
84 86
906 906
276 277
279 280
3 3
300 301
558 560
897 898
297 299
498 498
78 80
687 687
300 301
375 376
270 271
819 819
981 981
138 138
450 452
105 107
750 751
906 908
126 127
681 683
303 304
450 451
573 573
384 385
651 652
327 327
